Instance Name : r104
Date : 2022-07-18
Solution
Route 1 : 73 75 56 23 67 39 55 4 25 54
Route 2 : 27 69 76 79 29 24 68 80 12 26
Route 3 : 94 95 97 87 13
Route 4 : 92 98 14 44 38 86 16 91 100 37
Route 5 : 6 96 99 84 5 60 83 18 89
Route 6 : 10 63 90 32 66 65 71 81 33 50
Route 7 : 52 82 48 46 8 45 17 61 85 93 59
Route 8 : 53
Route 9 : 31 88 62 11 64 49 36 47 19 7
Route 10 : 1 70 30 20 51 9 35 34 78 3 77 28
Route 11 : 42 43 15 57 2 41 22 74 72 21 40 58
